
Gurobi 7.0.2 (linux64) logging started Mon Jul 25 00:15:36 2022


Gurobi 7.0.2 (linux64) logging started Mon Jul 25 00:15:54 2022


Gurobi 7.0.2 (linux64) logging started Mon Jul 25 00:16:00 2022


Gurobi 7.0.2 (linux64) logging started Mon Jul 25 00:16:05 2022


Gurobi 7.0.2 (linux64) logging started Mon Jul 25 00:16:09 2022

